data/lp_files/pEFS/72_3.lp
\ Model foo
\ LP format - for model browsing. Use MPS format to capture full model detail.
Minimize
  z
Subject To
 allocateEach[1]: x[1,1] + x[2,1] + x[3,1] + x[4,1] = 1
 allocateEach[2]: x[1,2] + x[2,2] + x[3,2] + x[4,2] = 1
 allocateEach[3]: x[1,3] + x[2,3] + x[3,3] + x[4,3] = 1
 allocateEach[4]: x[1,4] + x[2,4] + x[3,4] + x[4,4] = 1
 allocateEach[5]: x[1,5] + x[2,5] + x[3,5] + x[4,5] = 1
 allocateEach[6]: x[1,6] + x[2,6] + x[3,6] + x[4,6] = 1
 allocateEach[7]: x[1,7] + x[2,7] + x[3,7] + x[4,7] = 1
 allocateEach[8]: x[1,8] + x[2,8] + x[3,8] + x[4,8] = 1
 allocateEach[9]: x[1,9] + x[2,9] + x[3,9] + x[4,9] = 1
 allocateEach[10]: x[1,10] + x[2,10] + x[3,10] + x[4,10] = 1
 allocateEach[11]: x[1,11] + x[2,11] + x[3,11] + x[4,11] = 1
 allocateEach[12]: x[1,12] + x[2,12] + x[3,12] + x[4,12] = 1
 allocateAllCash: cashProportion[1] + cashProportion[2] + cashProportion[3]
   + cashProportion[4] = 1
 findWorstP[1,2]: z + 0.0265611304417116 cashProportion[1]
   - 0.0265611304417116 cashProportion[2] + 0.1106669499853914 x[1,1]
   + 0.0587133788414035 x[1,2] + 0.1131371351164705 x[1,3]
   + 0.0526707216659141 x[1,4] + 0.1031235889399453 x[1,5]
   + 0.0316475869212994 x[1,6] + 0.105447687853595 x[1,7]
   + 0.0539323753618954 x[1,8] + 0.1178782969003161 x[1,9]
   + 0.0336529522696486 x[1,10] + 0.082884007543361 x[1,11]
   + 0.109684188159048 x[1,12] - 0.1106669499853914 x[2,1]
   - 0.0587133788414035 x[2,2] - 0.1131371351164705 x[2,3]
   - 0.0526707216659141 x[2,4] - 0.1031235889399453 x[2,5]
   - 0.0316475869212994 x[2,6] - 0.105447687853595 x[2,7]
   - 0.0539323753618954 x[2,8] - 0.1178782969003161 x[2,9]
   - 0.0336529522696486 x[2,10] - 0.082884007543361 x[2,11]
   - 0.109684188159048 x[2,12] >= 0
 findWorstP[1,3]: z + 0.0265611304417116 cashProportion[1]
   - 0.0265611304417116 cashProportion[3] + 0.1106669499853914 x[1,1]
   + 0.0587133788414035 x[1,2] + 0.1131371351164705 x[1,3]
   + 0.0526707216659141 x[1,4] + 0.1031235889399453 x[1,5]
   + 0.0316475869212994 x[1,6] + 0.105447687853595 x[1,7]
   + 0.0539323753618954 x[1,8] + 0.1178782969003161 x[1,9]
   + 0.0336529522696486 x[1,10] + 0.082884007543361 x[1,11]
   + 0.109684188159048 x[1,12] - 0.1106669499853914 x[3,1]
   - 0.0587133788414035 x[3,2] - 0.1131371351164705 x[3,3]
   - 0.0526707216659141 x[3,4] - 0.1031235889399453 x[3,5]
   - 0.0316475869212994 x[3,6] - 0.105447687853595 x[3,7]
   - 0.0539323753618954 x[3,8] - 0.1178782969003161 x[3,9]
   - 0.0336529522696486 x[3,10] - 0.082884007543361 x[3,11]
   - 0.109684188159048 x[3,12] >= 0
 findWorstP[1,4]: z + 0.0265611304417116 cashProportion[1]
   - 0.0265611304417116 cashProportion[4] + 0.1106669499853914 x[1,1]
   + 0.0587133788414035 x[1,2] + 0.1131371351164705 x[1,3]
   + 0.0526707216659141 x[1,4] + 0.1031235889399453 x[1,5]
   + 0.0316475869212994 x[1,6] + 0.105447687853595 x[1,7]
   + 0.0539323753618954 x[1,8] + 0.1178782969003161 x[1,9]
   + 0.0336529522696486 x[1,10] + 0.082884007543361 x[1,11]
   + 0.109684188159048 x[1,12] - 0.1106669499853914 x[4,1]
   - 0.0587133788414035 x[4,2] - 0.1131371351164705 x[4,3]
   - 0.0526707216659141 x[4,4] - 0.1031235889399453 x[4,5]
   - 0.0316475869212994 x[4,6] - 0.105447687853595 x[4,7]
   - 0.0539323753618954 x[4,8] - 0.1178782969003161 x[4,9]
   - 0.0336529522696486 x[4,10] - 0.082884007543361 x[4,11]
   - 0.109684188159048 x[4,12] >= 0
 findWorstP[2,1]: z - 0.0351747304736278 cashProportion[1]
   + 0.0351747304736278 cashProportion[2] - 0.0355088904131272 x[1,1]
   - 0.1332067043036283 x[1,2] - 0.0916125855185635 x[1,3]
   - 0.1679593380115725 x[1,4] - 0.1197347825322289 x[1,5]
   - 0.0944793260521642 x[1,6] - 0.0510912960129443 x[1,7]
   - 0.0148261488946341 x[1,8] - 0.0212103624755975 x[1,9]
   - 0.0957983784449252 x[1,10] - 0.1201041172022019 x[1,11]
   - 0.0192933396647848 x[1,12] + 0.0355088904131272 x[2,1]
   + 0.1332067043036283 x[2,2] + 0.0916125855185635 x[2,3]
   + 0.1679593380115725 x[2,4] + 0.1197347825322289 x[2,5]
   + 0.0944793260521642 x[2,6] + 0.0510912960129443 x[2,7]
   + 0.0148261488946341 x[2,8] + 0.0212103624755975 x[2,9]
   + 0.0957983784449252 x[2,10] + 0.1201041172022019 x[2,11]
   + 0.0192933396647848 x[2,12] >= 0
 findWorstP[2,3]: z + 0.0351747304736278 cashProportion[2]
   - 0.0351747304736278 cashProportion[3] + 0.0355088904131272 x[2,1]
   + 0.1332067043036283 x[2,2] + 0.0916125855185635 x[2,3]
   + 0.1679593380115725 x[2,4] + 0.1197347825322289 x[2,5]
   + 0.0944793260521642 x[2,6] + 0.0510912960129443 x[2,7]
   + 0.0148261488946341 x[2,8] + 0.0212103624755975 x[2,9]
   + 0.0957983784449252 x[2,10] + 0.1201041172022019 x[2,11]
   + 0.0192933396647848 x[2,12] - 0.0355088904131272 x[3,1]
   - 0.1332067043036283 x[3,2] - 0.0916125855185635 x[3,3]
   - 0.1679593380115725 x[3,4] - 0.1197347825322289 x[3,5]
   - 0.0944793260521642 x[3,6] - 0.0510912960129443 x[3,7]
   - 0.0148261488946341 x[3,8] - 0.0212103624755975 x[3,9]
   - 0.0957983784449252 x[3,10] - 0.1201041172022019 x[3,11]
   - 0.0192933396647848 x[3,12] >= 0
 findWorstP[2,4]: z + 0.0351747304736278 cashProportion[2]
   - 0.0351747304736278 cashProportion[4] + 0.0355088904131272 x[2,1]
   + 0.1332067043036283 x[2,2] + 0.0916125855185635 x[2,3]
   + 0.1679593380115725 x[2,4] + 0.1197347825322289 x[2,5]
   + 0.0944793260521642 x[2,6] + 0.0510912960129443 x[2,7]
   + 0.0148261488946341 x[2,8] + 0.0212103624755975 x[2,9]
   + 0.0957983784449252 x[2,10] + 0.1201041172022019 x[2,11]
   + 0.0192933396647848 x[2,12] - 0.0355088904131272 x[4,1]
   - 0.1332067043036283 x[4,2] - 0.0916125855185635 x[4,3]
   - 0.1679593380115725 x[4,4] - 0.1197347825322289 x[4,5]
   - 0.0944793260521642 x[4,6] - 0.0510912960129443 x[4,7]
   - 0.0148261488946341 x[4,8] - 0.0212103624755975 x[4,9]
   - 0.0957983784449252 x[4,10] - 0.1201041172022019 x[4,11]
   - 0.0192933396647848 x[4,12] >= 0
 findWorstP[3,1]: z - 0.040256028340244 cashProportion[1]
   + 0.040256028340244 cashProportion[3] - 0.0313997021053903 x[1,1]
   - 0.066341934704722 x[1,2] - 0.0416851173463226 x[1,3]
   - 0.0984058612777263 x[1,4] - 0.0908578559639306 x[1,5]
   - 0.1231633187069764 x[1,6] - 0.0527353971257196 x[1,7]
   - 0.0597600740710921 x[1,8] - 0.0399742361418622 x[1,9]
   - 0.1973954349663862 x[1,10] - 0.050662211666197 x[1,11]
   - 0.1073628275834306 x[1,12] + 0.0313997021053903 x[3,1]
   + 0.066341934704722 x[3,2] + 0.0416851173463226 x[3,3]
   + 0.0984058612777263 x[3,4] + 0.0908578559639306 x[3,5]
   + 0.1231633187069764 x[3,6] + 0.0527353971257196 x[3,7]
   + 0.0597600740710921 x[3,8] + 0.0399742361418622 x[3,9]
   + 0.1973954349663862 x[3,10] + 0.050662211666197 x[3,11]
   + 0.1073628275834306 x[3,12] >= 0
 findWorstP[3,2]: z - 0.040256028340244 cashProportion[2]
   + 0.040256028340244 cashProportion[3] - 0.0313997021053903 x[2,1]
   - 0.066341934704722 x[2,2] - 0.0416851173463226 x[2,3]
   - 0.0984058612777263 x[2,4] - 0.0908578559639306 x[2,5]
   - 0.1231633187069764 x[2,6] - 0.0527353971257196 x[2,7]
   - 0.0597600740710921 x[2,8] - 0.0399742361418622 x[2,9]
   - 0.1973954349663862 x[2,10] - 0.050662211666197 x[2,11]
   - 0.1073628275834306 x[2,12] + 0.0313997021053903 x[3,1]
   + 0.066341934704722 x[3,2] + 0.0416851173463226 x[3,3]
   + 0.0984058612777263 x[3,4] + 0.0908578559639306 x[3,5]
   + 0.1231633187069764 x[3,6] + 0.0527353971257196 x[3,7]
   + 0.0597600740710921 x[3,8] + 0.0399742361418622 x[3,9]
   + 0.1973954349663862 x[3,10] + 0.050662211666197 x[3,11]
   + 0.1073628275834306 x[3,12] >= 0
 findWorstP[3,4]: z + 0.040256028340244 cashProportion[3]
   - 0.040256028340244 cashProportion[4] + 0.0313997021053903 x[3,1]
   + 0.066341934704722 x[3,2] + 0.0416851173463226 x[3,3]
   + 0.0984058612777263 x[3,4] + 0.0908578559639306 x[3,5]
   + 0.1231633187069764 x[3,6] + 0.0527353971257196 x[3,7]
   + 0.0597600740710921 x[3,8] + 0.0399742361418622 x[3,9]
   + 0.1973954349663862 x[3,10] + 0.050662211666197 x[3,11]
   + 0.1073628275834306 x[3,12] - 0.0313997021053903 x[4,1]
   - 0.066341934704722 x[4,2] - 0.0416851173463226 x[4,3]
   - 0.0984058612777263 x[4,4] - 0.0908578559639306 x[4,5]
   - 0.1231633187069764 x[4,6] - 0.0527353971257196 x[4,7]
   - 0.0597600740710921 x[4,8] - 0.0399742361418622 x[4,9]
   - 0.1973954349663862 x[4,10] - 0.050662211666197 x[4,11]
   - 0.1073628275834306 x[4,12] >= 0
 findWorstP[4,1]: z - 0.0301331886940276 cashProportion[1]
   + 0.0301331886940276 cashProportion[4] - 0.1387633339359971 x[1,1]
   - 0.1403001265593925 x[1,2] - 0.0740824444042669 x[1,3]
   - 0.1486620864219851 x[1,4] - 0.016332188272163 x[1,5]
   - 0.0149611281865847 x[1,6] - 0.0508648225155186 x[1,7]
   - 0.0834689326824564 x[1,8] - 0.1069276200807569 x[1,9]
   - 0.0614114385584282 x[1,10] - 0.00486651 x[1,11]
   - 0.1292261797143373 x[1,12] + 0.1387633339359971 x[4,1]
   + 0.1403001265593925 x[4,2] + 0.0740824444042669 x[4,3]
   + 0.1486620864219851 x[4,4] + 0.016332188272163 x[4,5]
   + 0.0149611281865847 x[4,6] + 0.0508648225155186 x[4,7]
   + 0.0834689326824564 x[4,8] + 0.1069276200807569 x[4,9]
   + 0.0614114385584282 x[4,10] + 0.00486651 x[4,11]
   + 0.1292261797143373 x[4,12] >= 0
 findWorstP[4,2]: z - 0.0301331886940276 cashProportion[2]
   + 0.0301331886940276 cashProportion[4] - 0.1387633339359971 x[2,1]
   - 0.1403001265593925 x[2,2] - 0.0740824444042669 x[2,3]
   - 0.1486620864219851 x[2,4] - 0.016332188272163 x[2,5]
   - 0.0149611281865847 x[2,6] - 0.0508648225155186 x[2,7]
   - 0.0834689326824564 x[2,8] - 0.1069276200807569 x[2,9]
   - 0.0614114385584282 x[2,10] - 0.00486651 x[2,11]
   - 0.1292261797143373 x[2,12] + 0.1387633339359971 x[4,1]
   + 0.1403001265593925 x[4,2] + 0.0740824444042669 x[4,3]
   + 0.1486620864219851 x[4,4] + 0.016332188272163 x[4,5]
   + 0.0149611281865847 x[4,6] + 0.0508648225155186 x[4,7]
   + 0.0834689326824564 x[4,8] + 0.1069276200807569 x[4,9]
   + 0.0614114385584282 x[4,10] + 0.00486651 x[4,11]
   + 0.1292261797143373 x[4,12] >= 0
 findWorstP[4,3]: z - 0.0301331886940276 cashProportion[3]
   + 0.0301331886940276 cashProportion[4] - 0.1387633339359971 x[3,1]
   - 0.1403001265593925 x[3,2] - 0.0740824444042669 x[3,3]
   - 0.1486620864219851 x[3,4] - 0.016332188272163 x[3,5]
   - 0.0149611281865847 x[3,6] - 0.0508648225155186 x[3,7]
   - 0.0834689326824564 x[3,8] - 0.1069276200807569 x[3,9]
   - 0.0614114385584282 x[3,10] - 0.00486651 x[3,11]
   - 0.1292261797143373 x[3,12] + 0.1387633339359971 x[4,1]
   + 0.1403001265593925 x[4,2] + 0.0740824444042669 x[4,3]
   + 0.1486620864219851 x[4,4] + 0.016332188272163 x[4,5]
   + 0.0149611281865847 x[4,6] + 0.0508648225155186 x[4,7]
   + 0.0834689326824564 x[4,8] + 0.1069276200807569 x[4,9]
   + 0.0614114385584282 x[4,10] + 0.00486651 x[4,11]
   + 0.1292261797143373 x[4,12] >= 0
Bounds
 z <= 1
 -infinity <= cashProportion[1] <= 1
 -infinity <= cashProportion[2] <= 1
 -infinity <= cashProportion[3] <= 1
 -infinity <= cashProportion[4] <= 1
Binaries
 x[1,1] x[1,2] x[1,3] x[1,4] x[1,5] x[1,6] x[1,7] x[1,8] x[1,9] x[1,10]
 x[1,11] x[1,12] x[2,1] x[2,2] x[2,3] x[2,4] x[2,5] x[2,6] x[2,7] x[2,8]
 x[2,9] x[2,10] x[2,11] x[2,12] x[3,1] x[3,2] x[3,3] x[3,4] x[3,5] x[3,6]
 x[3,7] x[3,8] x[3,9] x[3,10] x[3,11] x[3,12] x[4,1] x[4,2] x[4,3] x[4,4]
 x[4,5] x[4,6] x[4,7] x[4,8] x[4,9] x[4,10] x[4,11] x[4,12]
End
