data/mps_files/pEFS/72_3.mps
NAME foo
ROWS
 N  OBJ
 E  allocateEach[1]
 E  allocateEach[2]
 E  allocateEach[3]
 E  allocateEach[4]
 E  allocateEach[5]
 E  allocateEach[6]
 E  allocateEach[7]
 E  allocateEach[8]
 E  allocateEach[9]
 E  allocateEach[10]
 E  allocateEach[11]
 E  allocateEach[12]
 E  allocateAllCash
 G  findWorstP[1,2]
 G  findWorstP[1,3]
 G  findWorstP[1,4]
 G  findWorstP[2,1]
 G  findWorstP[2,3]
 G  findWorstP[2,4]
 G  findWorstP[3,1]
 G  findWorstP[3,2]
 G  findWorstP[3,4]
 G  findWorstP[4,1]
 G  findWorstP[4,2]
 G  findWorstP[4,3]
COLUMNS
    z         OBJ       1
    z         findWorstP[1,2]  1
    z         findWorstP[1,3]  1
    z         findWorstP[1,4]  1
    z         findWorstP[2,1]  1
    z         findWorstP[2,3]  1
    z         findWorstP[2,4]  1
    z         findWorstP[3,1]  1
    z         findWorstP[3,2]  1
    z         findWorstP[3,4]  1
    z         findWorstP[4,1]  1
    z         findWorstP[4,2]  1
    z         findWorstP[4,3]  1
    cashProportion[1]  allocateAllCash  1
    cashProportion[1]  findWorstP[1,2]  2.6561130441711597e-02
    cashProportion[1]  findWorstP[1,3]  2.6561130441711597e-02
    cashProportion[1]  findWorstP[1,4]  2.6561130441711597e-02
    cashProportion[1]  findWorstP[2,1]  -3.5174730473627756e-02
    cashProportion[1]  findWorstP[3,1]  -4.0256028340243950e-02
    cashProportion[1]  findWorstP[4,1]  -3.0133188694027598e-02
    cashProportion[2]  allocateAllCash  1
    cashProportion[2]  findWorstP[1,2]  -2.6561130441711597e-02
    cashProportion[2]  findWorstP[2,1]  3.5174730473627756e-02
    cashProportion[2]  findWorstP[2,3]  3.5174730473627756e-02
    cashProportion[2]  findWorstP[2,4]  3.5174730473627756e-02
    cashProportion[2]  findWorstP[3,2]  -4.0256028340243950e-02
    cashProportion[2]  findWorstP[4,2]  -3.0133188694027598e-02
    cashProportion[3]  allocateAllCash  1
    cashProportion[3]  findWorstP[1,3]  -2.6561130441711597e-02
    cashProportion[3]  findWorstP[2,3]  -3.5174730473627756e-02
    cashProportion[3]  findWorstP[3,1]  4.0256028340243950e-02
    cashProportion[3]  findWorstP[3,2]  4.0256028340243950e-02
    cashProportion[3]  findWorstP[3,4]  4.0256028340243950e-02
    cashProportion[3]  findWorstP[4,3]  -3.0133188694027598e-02
    cashProportion[4]  allocateAllCash  1
    cashProportion[4]  findWorstP[1,4]  -2.6561130441711597e-02
    cashProportion[4]  findWorstP[2,4]  -3.5174730473627756e-02
    cashProportion[4]  findWorstP[3,4]  -4.0256028340243950e-02
    cashProportion[4]  findWorstP[4,1]  3.0133188694027598e-02
    cashProportion[4]  findWorstP[4,2]  3.0133188694027598e-02
    cashProportion[4]  findWorstP[4,3]  3.0133188694027598e-02
    MARKER    'MARKER'                 'INTORG'
    x[1,1]    allocateEach[1]  1
    x[1,1]    findWorstP[1,2]  1.1066694998539137e-01
    x[1,1]    findWorstP[1,3]  1.1066694998539137e-01
    x[1,1]    findWorstP[1,4]  1.1066694998539137e-01
    x[1,1]    findWorstP[2,1]  -3.5508890413127214e-02
    x[1,1]    findWorstP[3,1]  -3.1399702105390281e-02
    x[1,1]    findWorstP[4,1]  -1.3876333393599707e-01
    x[1,2]    allocateEach[2]  1
    x[1,2]    findWorstP[1,2]  5.8713378841403478e-02
    x[1,2]    findWorstP[1,3]  5.8713378841403478e-02
    x[1,2]    findWorstP[1,4]  5.8713378841403478e-02
    x[1,2]    findWorstP[2,1]  -1.3320670430362830e-01
    x[1,2]    findWorstP[3,1]  -6.6341934704722022e-02
    x[1,2]    findWorstP[4,1]  -1.4030012655939250e-01
    x[1,3]    allocateEach[3]  1
    x[1,3]    findWorstP[1,2]  1.1313713511647054e-01
    x[1,3]    findWorstP[1,3]  1.1313713511647054e-01
    x[1,3]    findWorstP[1,4]  1.1313713511647054e-01
    x[1,3]    findWorstP[2,1]  -9.1612585518563480e-02
    x[1,3]    findWorstP[3,1]  -4.1685117346322610e-02
    x[1,3]    findWorstP[4,1]  -7.4082444404266853e-02
    x[1,4]    allocateEach[4]  1
    x[1,4]    findWorstP[1,2]  5.2670721665914091e-02
    x[1,4]    findWorstP[1,3]  5.2670721665914091e-02
    x[1,4]    findWorstP[1,4]  5.2670721665914091e-02
    x[1,4]    findWorstP[2,1]  -1.6795933801157251e-01
    x[1,4]    findWorstP[3,1]  -9.8405861277726339e-02
    x[1,4]    findWorstP[4,1]  -1.4866208642198514e-01
    x[1,5]    allocateEach[5]  1
    x[1,5]    findWorstP[1,2]  1.0312358893994526e-01
    x[1,5]    findWorstP[1,3]  1.0312358893994526e-01
    x[1,5]    findWorstP[1,4]  1.0312358893994526e-01
    x[1,5]    findWorstP[2,1]  -1.1973478253222886e-01
    x[1,5]    findWorstP[3,1]  -0.0908578559639306
    x[1,5]    findWorstP[4,1]  -1.6332188272162956e-02
    x[1,6]    allocateEach[6]  1
    x[1,6]    findWorstP[1,2]  3.1647586921299369e-02
    x[1,6]    findWorstP[1,3]  3.1647586921299369e-02
    x[1,6]    findWorstP[1,4]  3.1647586921299369e-02
    x[1,6]    findWorstP[2,1]  -9.4479326052164150e-02
    x[1,6]    findWorstP[3,1]  -1.2316331870697636e-01
    x[1,6]    findWorstP[4,1]  -1.4961128186584701e-02
    x[1,7]    allocateEach[7]  1
    x[1,7]    findWorstP[1,2]  1.0544768785359504e-01
    x[1,7]    findWorstP[1,3]  1.0544768785359504e-01
    x[1,7]    findWorstP[1,4]  1.0544768785359504e-01
    x[1,7]    findWorstP[2,1]  -5.1091296012944307e-02
    x[1,7]    findWorstP[3,1]  -5.2735397125719577e-02
    x[1,7]    findWorstP[4,1]  -5.0864822515518583e-02
    x[1,8]    allocateEach[8]  1
    x[1,8]    findWorstP[1,2]  5.3932375361895393e-02
    x[1,8]    findWorstP[1,3]  5.3932375361895393e-02
    x[1,8]    findWorstP[1,4]  5.3932375361895393e-02
    x[1,8]    findWorstP[2,1]  -1.4826148894634097e-02
    x[1,8]    findWorstP[3,1]  -5.9760074071092142e-02
    x[1,8]    findWorstP[4,1]  -8.3468932682456448e-02
    x[1,9]    allocateEach[9]  1
    x[1,9]    findWorstP[1,2]  1.1787829690031605e-01
    x[1,9]    findWorstP[1,3]  1.1787829690031605e-01
    x[1,9]    findWorstP[1,4]  1.1787829690031605e-01
    x[1,9]    findWorstP[2,1]  -2.1210362475597534e-02
    x[1,9]    findWorstP[3,1]  -3.9974236141862241e-02
    x[1,9]    findWorstP[4,1]  -1.0692762008075693e-01
    x[1,10]   allocateEach[10]  1
    x[1,10]   findWorstP[1,2]  3.3652952269648595e-02
    x[1,10]   findWorstP[1,3]  3.3652952269648595e-02
    x[1,10]   findWorstP[1,4]  3.3652952269648595e-02
    x[1,10]   findWorstP[2,1]  -9.5798378444925170e-02
    x[1,10]   findWorstP[3,1]  -1.9739543496638620e-01
    x[1,10]   findWorstP[4,1]  -6.1411438558428247e-02
    x[1,11]   allocateEach[11]  1
    x[1,11]   findWorstP[1,2]  8.2884007543361032e-02
    x[1,11]   findWorstP[1,3]  8.2884007543361032e-02
    x[1,11]   findWorstP[1,4]  8.2884007543361032e-02
    x[1,11]   findWorstP[2,1]  -1.2010411720220195e-01
    x[1,11]   findWorstP[3,1]  -5.0662211666197006e-02
    x[1,11]   findWorstP[4,1]  -4.8665099740854570e-03
    x[1,12]   allocateEach[12]  1
    x[1,12]   findWorstP[1,2]  1.0968418815904803e-01
    x[1,12]   findWorstP[1,3]  1.0968418815904803e-01
    x[1,12]   findWorstP[1,4]  1.0968418815904803e-01
    x[1,12]   findWorstP[2,1]  -1.9293339664784824e-02
    x[1,12]   findWorstP[3,1]  -1.0736282758343060e-01
    x[1,12]   findWorstP[4,1]  -1.2922617971433734e-01
    x[2,1]    allocateEach[1]  1
    x[2,1]    findWorstP[1,2]  -1.1066694998539137e-01
    x[2,1]    findWorstP[2,1]  3.5508890413127214e-02
    x[2,1]    findWorstP[2,3]  3.5508890413127214e-02
    x[2,1]    findWorstP[2,4]  3.5508890413127214e-02
    x[2,1]    findWorstP[3,2]  -3.1399702105390281e-02
    x[2,1]    findWorstP[4,2]  -1.3876333393599707e-01
    x[2,2]    allocateEach[2]  1
    x[2,2]    findWorstP[1,2]  -5.8713378841403478e-02
    x[2,2]    findWorstP[2,1]  1.3320670430362830e-01
    x[2,2]    findWorstP[2,3]  1.3320670430362830e-01
    x[2,2]    findWorstP[2,4]  1.3320670430362830e-01
    x[2,2]    findWorstP[3,2]  -6.6341934704722022e-02
    x[2,2]    findWorstP[4,2]  -1.4030012655939250e-01
    x[2,3]    allocateEach[3]  1
    x[2,3]    findWorstP[1,2]  -1.1313713511647054e-01
    x[2,3]    findWorstP[2,1]  9.1612585518563480e-02
    x[2,3]    findWorstP[2,3]  9.1612585518563480e-02
    x[2,3]    findWorstP[2,4]  9.1612585518563480e-02
    x[2,3]    findWorstP[3,2]  -4.1685117346322610e-02
    x[2,3]    findWorstP[4,2]  -7.4082444404266853e-02
    x[2,4]    allocateEach[4]  1
    x[2,4]    findWorstP[1,2]  -5.2670721665914091e-02
    x[2,4]    findWorstP[2,1]  1.6795933801157251e-01
    x[2,4]    findWorstP[2,3]  1.6795933801157251e-01
    x[2,4]    findWorstP[2,4]  1.6795933801157251e-01
    x[2,4]    findWorstP[3,2]  -9.8405861277726339e-02
    x[2,4]    findWorstP[4,2]  -1.4866208642198514e-01
    x[2,5]    allocateEach[5]  1
    x[2,5]    findWorstP[1,2]  -1.0312358893994526e-01
    x[2,5]    findWorstP[2,1]  1.1973478253222886e-01
    x[2,5]    findWorstP[2,3]  1.1973478253222886e-01
    x[2,5]    findWorstP[2,4]  1.1973478253222886e-01
    x[2,5]    findWorstP[3,2]  -0.0908578559639306
    x[2,5]    findWorstP[4,2]  -1.6332188272162956e-02
    x[2,6]    allocateEach[6]  1
    x[2,6]    findWorstP[1,2]  -3.1647586921299369e-02
    x[2,6]    findWorstP[2,1]  9.4479326052164150e-02
    x[2,6]    findWorstP[2,3]  9.4479326052164150e-02
    x[2,6]    findWorstP[2,4]  9.4479326052164150e-02
    x[2,6]    findWorstP[3,2]  -1.2316331870697636e-01
    x[2,6]    findWorstP[4,2]  -1.4961128186584701e-02
    x[2,7]    allocateEach[7]  1
    x[2,7]    findWorstP[1,2]  -1.0544768785359504e-01
    x[2,7]    findWorstP[2,1]  5.1091296012944307e-02
    x[2,7]    findWorstP[2,3]  5.1091296012944307e-02
    x[2,7]    findWorstP[2,4]  5.1091296012944307e-02
    x[2,7]    findWorstP[3,2]  -5.2735397125719577e-02
    x[2,7]    findWorstP[4,2]  -5.0864822515518583e-02
    x[2,8]    allocateEach[8]  1
    x[2,8]    findWorstP[1,2]  -5.3932375361895393e-02
    x[2,8]    findWorstP[2,1]  1.4826148894634097e-02
    x[2,8]    findWorstP[2,3]  1.4826148894634097e-02
    x[2,8]    findWorstP[2,4]  1.4826148894634097e-02
    x[2,8]    findWorstP[3,2]  -5.9760074071092142e-02
    x[2,8]    findWorstP[4,2]  -8.3468932682456448e-02
    x[2,9]    allocateEach[9]  1
    x[2,9]    findWorstP[1,2]  -1.1787829690031605e-01
    x[2,9]    findWorstP[2,1]  2.1210362475597534e-02
    x[2,9]    findWorstP[2,3]  2.1210362475597534e-02
    x[2,9]    findWorstP[2,4]  2.1210362475597534e-02
    x[2,9]    findWorstP[3,2]  -3.9974236141862241e-02
    x[2,9]    findWorstP[4,2]  -1.0692762008075693e-01
    x[2,10]   allocateEach[10]  1
    x[2,10]   findWorstP[1,2]  -3.3652952269648595e-02
    x[2,10]   findWorstP[2,1]  9.5798378444925170e-02
    x[2,10]   findWorstP[2,3]  9.5798378444925170e-02
    x[2,10]   findWorstP[2,4]  9.5798378444925170e-02
    x[2,10]   findWorstP[3,2]  -1.9739543496638620e-01
    x[2,10]   findWorstP[4,2]  -6.1411438558428247e-02
    x[2,11]   allocateEach[11]  1
    x[2,11]   findWorstP[1,2]  -8.2884007543361032e-02
    x[2,11]   findWorstP[2,1]  1.2010411720220195e-01
    x[2,11]   findWorstP[2,3]  1.2010411720220195e-01
    x[2,11]   findWorstP[2,4]  1.2010411720220195e-01
    x[2,11]   findWorstP[3,2]  -5.0662211666197006e-02
    x[2,11]   findWorstP[4,2]  -4.8665099740854570e-03
    x[2,12]   allocateEach[12]  1
    x[2,12]   findWorstP[1,2]  -1.0968418815904803e-01
    x[2,12]   findWorstP[2,1]  1.9293339664784824e-02
    x[2,12]   findWorstP[2,3]  1.9293339664784824e-02
    x[2,12]   findWorstP[2,4]  1.9293339664784824e-02
    x[2,12]   findWorstP[3,2]  -1.0736282758343060e-01
    x[2,12]   findWorstP[4,2]  -1.2922617971433734e-01
    x[3,1]    allocateEach[1]  1
    x[3,1]    findWorstP[1,3]  -1.1066694998539137e-01
    x[3,1]    findWorstP[2,3]  -3.5508890413127214e-02
    x[3,1]    findWorstP[3,1]  3.1399702105390281e-02
    x[3,1]    findWorstP[3,2]  3.1399702105390281e-02
    x[3,1]    findWorstP[3,4]  3.1399702105390281e-02
    x[3,1]    findWorstP[4,3]  -1.3876333393599707e-01
    x[3,2]    allocateEach[2]  1
    x[3,2]    findWorstP[1,3]  -5.8713378841403478e-02
    x[3,2]    findWorstP[2,3]  -1.3320670430362830e-01
    x[3,2]    findWorstP[3,1]  6.6341934704722022e-02
    x[3,2]    findWorstP[3,2]  6.6341934704722022e-02
    x[3,2]    findWorstP[3,4]  6.6341934704722022e-02
    x[3,2]    findWorstP[4,3]  -1.4030012655939250e-01
    x[3,3]    allocateEach[3]  1
    x[3,3]    findWorstP[1,3]  -1.1313713511647054e-01
    x[3,3]    findWorstP[2,3]  -9.1612585518563480e-02
    x[3,3]    findWorstP[3,1]  4.1685117346322610e-02
    x[3,3]    findWorstP[3,2]  4.1685117346322610e-02
    x[3,3]    findWorstP[3,4]  4.1685117346322610e-02
    x[3,3]    findWorstP[4,3]  -7.4082444404266853e-02
    x[3,4]    allocateEach[4]  1
    x[3,4]    findWorstP[1,3]  -5.2670721665914091e-02
    x[3,4]    findWorstP[2,3]  -1.6795933801157251e-01
    x[3,4]    findWorstP[3,1]  9.8405861277726339e-02
    x[3,4]    findWorstP[3,2]  9.8405861277726339e-02
    x[3,4]    findWorstP[3,4]  9.8405861277726339e-02
    x[3,4]    findWorstP[4,3]  -1.4866208642198514e-01
    x[3,5]    allocateEach[5]  1
    x[3,5]    findWorstP[1,3]  -1.0312358893994526e-01
    x[3,5]    findWorstP[2,3]  -1.1973478253222886e-01
    x[3,5]    findWorstP[3,1]  0.0908578559639306
    x[3,5]    findWorstP[3,2]  0.0908578559639306
    x[3,5]    findWorstP[3,4]  0.0908578559639306
    x[3,5]    findWorstP[4,3]  -1.6332188272162956e-02
    x[3,6]    allocateEach[6]  1
    x[3,6]    findWorstP[1,3]  -3.1647586921299369e-02
    x[3,6]    findWorstP[2,3]  -9.4479326052164150e-02
    x[3,6]    findWorstP[3,1]  1.2316331870697636e-01
    x[3,6]    findWorstP[3,2]  1.2316331870697636e-01
    x[3,6]    findWorstP[3,4]  1.2316331870697636e-01
    x[3,6]    findWorstP[4,3]  -1.4961128186584701e-02
    x[3,7]    allocateEach[7]  1
    x[3,7]    findWorstP[1,3]  -1.0544768785359504e-01
    x[3,7]    findWorstP[2,3]  -5.1091296012944307e-02
    x[3,7]    findWorstP[3,1]  5.2735397125719577e-02
    x[3,7]    findWorstP[3,2]  5.2735397125719577e-02
    x[3,7]    findWorstP[3,4]  5.2735397125719577e-02
    x[3,7]    findWorstP[4,3]  -5.0864822515518583e-02
    x[3,8]    allocateEach[8]  1
    x[3,8]    findWorstP[1,3]  -5.3932375361895393e-02
    x[3,8]    findWorstP[2,3]  -1.4826148894634097e-02
    x[3,8]    findWorstP[3,1]  5.9760074071092142e-02
    x[3,8]    findWorstP[3,2]  5.9760074071092142e-02
    x[3,8]    findWorstP[3,4]  5.9760074071092142e-02
    x[3,8]    findWorstP[4,3]  -8.3468932682456448e-02
    x[3,9]    allocateEach[9]  1
    x[3,9]    findWorstP[1,3]  -1.1787829690031605e-01
    x[3,9]    findWorstP[2,3]  -2.1210362475597534e-02
    x[3,9]    findWorstP[3,1]  3.9974236141862241e-02
    x[3,9]    findWorstP[3,2]  3.9974236141862241e-02
    x[3,9]    findWorstP[3,4]  3.9974236141862241e-02
    x[3,9]    findWorstP[4,3]  -1.0692762008075693e-01
    x[3,10]   allocateEach[10]  1
    x[3,10]   findWorstP[1,3]  -3.3652952269648595e-02
    x[3,10]   findWorstP[2,3]  -9.5798378444925170e-02
    x[3,10]   findWorstP[3,1]  1.9739543496638620e-01
    x[3,10]   findWorstP[3,2]  1.9739543496638620e-01
    x[3,10]   findWorstP[3,4]  1.9739543496638620e-01
    x[3,10]   findWorstP[4,3]  -6.1411438558428247e-02
    x[3,11]   allocateEach[11]  1
    x[3,11]   findWorstP[1,3]  -8.2884007543361032e-02
    x[3,11]   findWorstP[2,3]  -1.2010411720220195e-01
    x[3,11]   findWorstP[3,1]  5.0662211666197006e-02
    x[3,11]   findWorstP[3,2]  5.0662211666197006e-02
    x[3,11]   findWorstP[3,4]  5.0662211666197006e-02
    x[3,11]   findWorstP[4,3]  -4.8665099740854570e-03
    x[3,12]   allocateEach[12]  1
    x[3,12]   findWorstP[1,3]  -1.0968418815904803e-01
    x[3,12]   findWorstP[2,3]  -1.9293339664784824e-02
    x[3,12]   findWorstP[3,1]  1.0736282758343060e-01
    x[3,12]   findWorstP[3,2]  1.0736282758343060e-01
    x[3,12]   findWorstP[3,4]  1.0736282758343060e-01
    x[3,12]   findWorstP[4,3]  -1.2922617971433734e-01
    x[4,1]    allocateEach[1]  1
    x[4,1]    findWorstP[1,4]  -1.1066694998539137e-01
    x[4,1]    findWorstP[2,4]  -3.5508890413127214e-02
    x[4,1]    findWorstP[3,4]  -3.1399702105390281e-02
    x[4,1]    findWorstP[4,1]  1.3876333393599707e-01
    x[4,1]    findWorstP[4,2]  1.3876333393599707e-01
    x[4,1]    findWorstP[4,3]  1.3876333393599707e-01
    x[4,2]    allocateEach[2]  1
    x[4,2]    findWorstP[1,4]  -5.8713378841403478e-02
    x[4,2]    findWorstP[2,4]  -1.3320670430362830e-01
    x[4,2]    findWorstP[3,4]  -6.6341934704722022e-02
    x[4,2]    findWorstP[4,1]  1.4030012655939250e-01
    x[4,2]    findWorstP[4,2]  1.4030012655939250e-01
    x[4,2]    findWorstP[4,3]  1.4030012655939250e-01
    x[4,3]    allocateEach[3]  1
    x[4,3]    findWorstP[1,4]  -1.1313713511647054e-01
    x[4,3]    findWorstP[2,4]  -9.1612585518563480e-02
    x[4,3]    findWorstP[3,4]  -4.1685117346322610e-02
    x[4,3]    findWorstP[4,1]  7.4082444404266853e-02
    x[4,3]    findWorstP[4,2]  7.4082444404266853e-02
    x[4,3]    findWorstP[4,3]  7.4082444404266853e-02
    x[4,4]    allocateEach[4]  1
    x[4,4]    findWorstP[1,4]  -5.2670721665914091e-02
    x[4,4]    findWorstP[2,4]  -1.6795933801157251e-01
    x[4,4]    findWorstP[3,4]  -9.8405861277726339e-02
    x[4,4]    findWorstP[4,1]  1.4866208642198514e-01
    x[4,4]    findWorstP[4,2]  1.4866208642198514e-01
    x[4,4]    findWorstP[4,3]  1.4866208642198514e-01
    x[4,5]    allocateEach[5]  1
    x[4,5]    findWorstP[1,4]  -1.0312358893994526e-01
    x[4,5]    findWorstP[2,4]  -1.1973478253222886e-01
    x[4,5]    findWorstP[3,4]  -0.0908578559639306
    x[4,5]    findWorstP[4,1]  1.6332188272162956e-02
    x[4,5]    findWorstP[4,2]  1.6332188272162956e-02
    x[4,5]    findWorstP[4,3]  1.6332188272162956e-02
    x[4,6]    allocateEach[6]  1
    x[4,6]    findWorstP[1,4]  -3.1647586921299369e-02
    x[4,6]    findWorstP[2,4]  -9.4479326052164150e-02
    x[4,6]    findWorstP[3,4]  -1.2316331870697636e-01
    x[4,6]    findWorstP[4,1]  1.4961128186584701e-02
    x[4,6]    findWorstP[4,2]  1.4961128186584701e-02
    x[4,6]    findWorstP[4,3]  1.4961128186584701e-02
    x[4,7]    allocateEach[7]  1
    x[4,7]    findWorstP[1,4]  -1.0544768785359504e-01
    x[4,7]    findWorstP[2,4]  -5.1091296012944307e-02
    x[4,7]    findWorstP[3,4]  -5.2735397125719577e-02
    x[4,7]    findWorstP[4,1]  5.0864822515518583e-02
    x[4,7]    findWorstP[4,2]  5.0864822515518583e-02
    x[4,7]    findWorstP[4,3]  5.0864822515518583e-02
    x[4,8]    allocateEach[8]  1
    x[4,8]    findWorstP[1,4]  -5.3932375361895393e-02
    x[4,8]    findWorstP[2,4]  -1.4826148894634097e-02
    x[4,8]    findWorstP[3,4]  -5.9760074071092142e-02
    x[4,8]    findWorstP[4,1]  8.3468932682456448e-02
    x[4,8]    findWorstP[4,2]  8.3468932682456448e-02
    x[4,8]    findWorstP[4,3]  8.3468932682456448e-02
    x[4,9]    allocateEach[9]  1
    x[4,9]    findWorstP[1,4]  -1.1787829690031605e-01
    x[4,9]    findWorstP[2,4]  -2.1210362475597534e-02
    x[4,9]    findWorstP[3,4]  -3.9974236141862241e-02
    x[4,9]    findWorstP[4,1]  1.0692762008075693e-01
    x[4,9]    findWorstP[4,2]  1.0692762008075693e-01
    x[4,9]    findWorstP[4,3]  1.0692762008075693e-01
    x[4,10]   allocateEach[10]  1
    x[4,10]   findWorstP[1,4]  -3.3652952269648595e-02
    x[4,10]   findWorstP[2,4]  -9.5798378444925170e-02
    x[4,10]   findWorstP[3,4]  -1.9739543496638620e-01
    x[4,10]   findWorstP[4,1]  6.1411438558428247e-02
    x[4,10]   findWorstP[4,2]  6.1411438558428247e-02
    x[4,10]   findWorstP[4,3]  6.1411438558428247e-02
    x[4,11]   allocateEach[11]  1
    x[4,11]   findWorstP[1,4]  -8.2884007543361032e-02
    x[4,11]   findWorstP[2,4]  -1.2010411720220195e-01
    x[4,11]   findWorstP[3,4]  -5.0662211666197006e-02
    x[4,11]   findWorstP[4,1]  4.8665099740854570e-03
    x[4,11]   findWorstP[4,2]  4.8665099740854570e-03
    x[4,11]   findWorstP[4,3]  4.8665099740854570e-03
    x[4,12]   allocateEach[12]  1
    x[4,12]   findWorstP[1,4]  -1.0968418815904803e-01
    x[4,12]   findWorstP[2,4]  -1.9293339664784824e-02
    x[4,12]   findWorstP[3,4]  -1.0736282758343060e-01
    x[4,12]   findWorstP[4,1]  1.2922617971433734e-01
    x[4,12]   findWorstP[4,2]  1.2922617971433734e-01
    x[4,12]   findWorstP[4,3]  1.2922617971433734e-01
    MARKER    'MARKER'                 'INTEND'
RHS
    RHS1      allocateEach[1]  1
    RHS1      allocateEach[2]  1
    RHS1      allocateEach[3]  1
    RHS1      allocateEach[4]  1
    RHS1      allocateEach[5]  1
    RHS1      allocateEach[6]  1
    RHS1      allocateEach[7]  1
    RHS1      allocateEach[8]  1
    RHS1      allocateEach[9]  1
    RHS1      allocateEach[10]  1
    RHS1      allocateEach[11]  1
    RHS1      allocateEach[12]  1
    RHS1      allocateAllCash  1
BOUNDS
 UP BND1      z         1
 MI BND1      cashProportion[1]
 UP BND1      cashProportion[1]  1
 MI BND1      cashProportion[2]
 UP BND1      cashProportion[2]  1
 MI BND1      cashProportion[3]
 UP BND1      cashProportion[3]  1
 MI BND1      cashProportion[4]
 UP BND1      cashProportion[4]  1
 BV BND1      x[1,1]  
 BV BND1      x[1,2]  
 BV BND1      x[1,3]  
 BV BND1      x[1,4]  
 BV BND1      x[1,5]  
 BV BND1      x[1,6]  
 BV BND1      x[1,7]  
 BV BND1      x[1,8]  
 BV BND1      x[1,9]  
 BV BND1      x[1,10] 
 BV BND1      x[1,11] 
 BV BND1      x[1,12] 
 BV BND1      x[2,1]  
 BV BND1      x[2,2]  
 BV BND1      x[2,3]  
 BV BND1      x[2,4]  
 BV BND1      x[2,5]  
 BV BND1      x[2,6]  
 BV BND1      x[2,7]  
 BV BND1      x[2,8]  
 BV BND1      x[2,9]  
 BV BND1      x[2,10] 
 BV BND1      x[2,11] 
 BV BND1      x[2,12] 
 BV BND1      x[3,1]  
 BV BND1      x[3,2]  
 BV BND1      x[3,3]  
 BV BND1      x[3,4]  
 BV BND1      x[3,5]  
 BV BND1      x[3,6]  
 BV BND1      x[3,7]  
 BV BND1      x[3,8]  
 BV BND1      x[3,9]  
 BV BND1      x[3,10] 
 BV BND1      x[3,11] 
 BV BND1      x[3,12] 
 BV BND1      x[4,1]  
 BV BND1      x[4,2]  
 BV BND1      x[4,3]  
 BV BND1      x[4,4]  
 BV BND1      x[4,5]  
 BV BND1      x[4,6]  
 BV BND1      x[4,7]  
 BV BND1      x[4,8]  
 BV BND1      x[4,9]  
 BV BND1      x[4,10] 
 BV BND1      x[4,11] 
 BV BND1      x[4,12] 
ENDATA
